
n_res = 8;
rcap = [90, 95, 94, 89, 694, 751, 672, 686];
rtype = [1, 1, 1, 1, 2, 2, 2, 2];
n_tasks = 50;
modes =  [{1, 2, 3}, {4, 5, 6}, {7, 8, 9}, {10, 11, 12}, {13, 14, 15}, {16, 17, 18}, {19, 20, 21}, {22, 23, 24}, {25, 26, 27}, {28, 29, 30}, {31, 32, 33}, {34, 35, 36}, {37, 38, 39}, {40, 41, 42}, {43, 44, 45}, {46, 47, 48}, {49, 50, 51}, {52, 53, 54}, {55, 56, 57}, {58, 59, 60}, {61, 62, 63}, {64, 65, 66}, {67, 68, 69}, {70, 71, 72}, {73, 74, 75}, {76, 77, 78}, {79, 80, 81}, {82, 83, 84}, {85, 86, 87}, {88, 89, 90}, {91, 92, 93}, {94, 95, 96}, {97, 98, 99}, {100, 101, 102}, {103, 104, 105}, {106, 107, 108}, {109, 110, 111}, {112, 113, 114}, {115, 116, 117}, {118, 119, 120}, {121, 122, 123}, {124, 125, 126}, {127, 128, 129}, {130, 131, 132}, {133, 134, 135}, {136, 137, 138}, {139, 140, 141}, {142, 143, 144}, {145, 146, 147}, {148, 149, 150}];
succ =  [{14, 6, 4}, {23, 19, 15, 12, 11, 9}, {4}, {23, 16, 15, 12, 9}, {18, 16, 15, 14, 12}, {23, 20, 18, 11}, {20, 16, 15, 9}, {24, 23, 21, 20, 18}, {24, 21, 18, 17}, {28, 18, 16}, {21, 16}, {27, 24, 22, 21, 20}, {27, 23, 22, 21, 20}, {28, 24, 23, 17}, {21, 17}, {24, 17}, {34, 31, 27, 22}, {34, 31, 27, 22}, {28, 24, 22}, {34, 31, 26, 25}, {34, 32, 30, 28}, {26, 25}, {35, 34, 26}, {35, 34, 32, 30}, {38, 33, 29}, {38, 32, 30}, {40, 35, 32}, {38, 35, 33}, {30}, {40, 39, 37, 36}, {40, 37, 35}, {50, 39, 37}, {50, 43, 42, 37}, {37, 36}, {42, 36}, {50, 43, 41}, {44, 41}, {48, 40}, {43, 42}, {50, 49, 46, 45}, {49, 48, 46}, {49, 48, 45}, {48, 45}, {45}, {47}, {47}, {}, {}, {}, {}];
n_opt = 150;
dur = [9, 14, 22, 2, 14, 24, 13, 18, 28, 3, 16, 26, 8, 17, 19, 5, 26, 30, 10, 17, 18, 12, 18, 25, 2, 3, 8, 8, 11, 27, 7, 12, 13, 13, 16, 24, 4, 19, 24, 11, 12, 29, 9, 17, 26, 4, 22, 25, 2, 18, 30, 11, 13, 20, 7, 11, 20, 4, 7, 14, 15, 24, 27, 2, 25, 26, 1, 10, 14, 7, 28, 30, 7, 13, 14, 3, 13, 23, 13, 21, 25, 7, 17, 23, 1, 18, 22, 12, 24, 25, 10, 23, 26, 4, 10, 13, 5, 11, 17, 7, 17, 18, 15, 16, 25, 5, 12, 22, 3, 17, 26, 9, 13, 16, 8, 15, 25, 11, 19, 28, 1, 20, 21, 4, 8, 15, 15, 18, 29, 1, 22, 26, 8, 9, 19, 3, 18, 25, 3, 13, 15, 9, 14, 19, 5, 26, 29, 12, 20, 26];
rreq = [|7, 7, 2, 22, 20, 15, 23, 22, 22, 8, 5, 4, 21, 18, 16, 20, 16, 13, 26, 21, 11, 23, 21, 19, 20, 15, 14, 8, 7, 2, 26, 22, 18, 5, 4, 2, 20, 9, 6, 27, 24, 14, 21, 13, 8, 25, 24, 22, 17, 15, 9, 19, 19, 16, 18, 12, 12, 10, 6, 2, 18, 17, 14, 17, 13, 12, 21, 20, 7, 13, 9, 7, 24, 20, 14, 16, 16, 16, 12, 12, 12, 29, 28, 25, 17, 16, 15, 25, 25, 25, 30, 13, 8, 22, 8, 4, 22, 21, 15, 27, 17, 12, 22, 20, 18, 19, 14, 6, 17, 9, 7, 13, 11, 5, 9, 5, 4, 12, 9, 4, 28, 28, 26, 27, 25, 24, 20, 19, 14, 23, 22, 21, 15, 15, 14, 15, 5, 1, 15, 10, 8, 22, 21, 21, 15, 9, 6, 15, 13, 13
 |22, 18, 17, 15, 13, 10, 23, 16, 13, 13, 9, 7, 23, 23, 16, 27, 27, 24, 21, 16, 9, 16, 13, 6, 19, 14, 8, 5, 5, 3, 7, 5, 4, 9, 6, 6, 26, 22, 19, 13, 13, 13, 22, 19, 15, 25, 22, 16, 21, 19, 2, 27, 12, 4, 27, 21, 19, 20, 10, 9, 24, 24, 23, 18, 16, 9, 23, 15, 11, 17, 13, 12, 21, 21, 14, 23, 20, 17, 5, 2, 2, 17, 15, 14, 20, 17, 15, 27, 18, 12, 25, 25, 23, 19, 14, 7, 17, 16, 8, 13, 11, 11, 9, 8, 4, 27, 25, 18, 23, 16, 11, 13, 10, 7, 25, 21, 21, 17, 15, 10, 22, 20, 17, 17, 17, 8, 8, 7, 7, 6, 4, 4, 22, 18, 8, 26, 24, 20, 27, 25, 21, 10, 9, 8, 18, 17, 9, 25, 25, 25
 |19, 11, 11, 22, 18, 17, 24, 22, 20, 24, 18, 17, 19, 18, 16, 21, 18, 16, 24, 23, 21, 12, 9, 7, 14, 9, 6, 13, 10, 4, 12, 8, 8, 16, 13, 8, 25, 25, 23, 14, 14, 13, 22, 20, 17, 11, 11, 11, 30, 27, 24, 11, 9, 9, 4, 4, 4, 16, 15, 15, 13, 10, 7, 19, 18, 17, 23, 23, 17, 24, 21, 20, 23, 22, 22, 26, 23, 15, 11, 10, 8, 27, 21, 7, 22, 18, 7, 15, 11, 7, 8, 6, 4, 18, 18, 16, 26, 17, 7, 15, 12, 10, 21, 17, 4, 19, 18, 16, 20, 19, 18, 19, 17, 15, 20, 10, 4, 22, 18, 6, 11, 10, 7, 24, 20, 19, 20, 14, 2, 19, 16, 16, 28, 27, 25, 22, 21, 14, 23, 15, 10, 19, 18, 18, 26, 15, 13, 18, 16, 16
 |1, 1, 1, 24, 21, 20, 20, 18, 14, 15, 15, 14, 19, 13, 7, 7, 7, 5, 25, 22, 19, 26, 26, 26, 22, 19, 14, 24, 14, 8, 27, 26, 21, 17, 10, 4, 13, 9, 6, 20, 17, 17, 17, 16, 15, 15, 12, 8, 21, 20, 17, 19, 13, 13, 22, 16, 15, 27, 19, 15, 13, 10, 4, 22, 19, 17, 11, 11, 8, 16, 12, 8, 22, 9, 7, 16, 9, 7, 15, 13, 11, 5, 4, 2, 23, 19, 16, 25, 17, 3, 21, 17, 17, 25, 22, 22, 15, 14, 14, 19, 19, 19, 18, 16, 15, 13, 12, 10, 16, 11, 6, 21, 17, 17, 11, 11, 9, 24, 18, 15, 25, 22, 17, 25, 20, 17, 18, 10, 9, 21, 20, 20, 26, 24, 22, 17, 17, 17, 25, 19, 2, 14, 14, 8, 8, 7, 7, 14, 12, 11
 |18, 15, 5, 15, 11, 6, 18, 16, 14, 13, 9, 7, 23, 19, 8, 14, 8, 4, 24, 24, 22, 25, 19, 18, 13, 9, 6, 29, 15, 10, 8, 7, 7, 29, 13, 7, 21, 14, 10, 12, 9, 9, 27, 25, 24, 4, 4, 4, 21, 18, 16, 23, 12, 4, 22, 16, 14, 23, 21, 17, 20, 15, 9, 23, 19, 17, 28, 19, 6, 26, 24, 24, 20, 15, 6, 25, 25, 25, 18, 14, 11, 11, 9, 7, 20, 12, 11, 26, 23, 21, 14, 13, 13, 28, 28, 28, 9, 9, 8, 11, 8, 3, 25, 22, 21, 15, 14, 10, 16, 15, 15, 21, 11, 5, 28, 19, 12, 14, 11, 4, 29, 26, 22, 2, 1, 1, 21, 16, 14, 13, 8, 7, 17, 10, 9, 16, 16, 16, 24, 17, 15, 12, 7, 7, 26, 23, 22, 29, 26, 22
 |7, 6, 4, 29, 28, 27, 13, 9, 7, 22, 18, 15, 14, 11, 7, 18, 12, 10, 14, 13, 13, 22, 18, 17, 22, 20, 20, 25, 22, 17, 23, 23, 21, 23, 15, 14, 24, 16, 11, 19, 17, 14, 22, 20, 20, 29, 18, 17, 14, 11, 7, 10, 9, 9, 15, 15, 15, 14, 9, 8, 30, 30, 30, 19, 15, 14, 28, 27, 26, 26, 25, 23, 18, 12, 8, 23, 19, 18, 14, 12, 10, 21, 19, 10, 28, 26, 25, 19, 17, 13, 24, 23, 16, 12, 6, 6, 13, 9, 8, 27, 21, 18, 10, 7, 5, 23, 22, 21, 14, 12, 10, 29, 17, 9, 27, 16, 10, 19, 7, 3, 8, 7, 6, 26, 25, 24, 11, 9, 5, 22, 14, 11, 15, 12, 10, 26, 18, 10, 22, 14, 8, 27, 20, 14, 24, 22, 19, 11, 10, 7
 |22, 16, 11, 29, 24, 20, 16, 14, 10, 15, 14, 13, 12, 7, 4, 24, 23, 23, 4, 4, 4, 30, 27, 24, 20, 19, 19, 6, 3, 3, 23, 16, 14, 7, 5, 4, 29, 25, 21, 10, 8, 5, 7, 7, 6, 21, 19, 2, 23, 15, 11, 11, 10, 10, 13, 11, 11, 21, 13, 9, 17, 7, 4, 21, 16, 15, 15, 11, 8, 23, 11, 8, 4, 3, 3, 8, 6, 2, 28, 14, 7, 17, 12, 10, 17, 16, 10, 7, 6, 6, 16, 12, 9, 17, 15, 14, 30, 26, 24, 8, 8, 6, 28, 19, 17, 23, 19, 18, 28, 26, 26, 18, 17, 17, 23, 11, 3, 27, 17, 9, 14, 14, 13, 19, 18, 18, 26, 18, 17, 16, 11, 5, 10, 10, 10, 19, 18, 18, 27, 21, 17, 27, 22, 18, 24, 23, 21, 23, 21, 12
 |26, 25, 24, 25, 16, 10, 21, 17, 13, 18, 12, 9, 26, 26, 26, 18, 14, 10, 22, 22, 16, 29, 23, 19, 16, 9, 5, 17, 17, 17, 9, 4, 4, 28, 21, 13, 3, 2, 1, 18, 15, 12, 22, 19, 15, 10, 8, 7, 24, 15, 10, 11, 9, 7, 26, 21, 13, 12, 8, 6, 28, 24, 17, 20, 20, 20, 21, 14, 1, 21, 15, 10, 24, 15, 13, 15, 15, 3, 21, 9, 9, 11, 8, 6, 22, 18, 11, 24, 20, 15, 14, 13, 5, 10, 8, 5, 26, 22, 21, 17, 15, 12, 26, 25, 25, 27, 24, 22, 21, 20, 19, 19, 19, 18, 15, 15, 15, 26, 17, 11, 14, 10, 6, 30, 15, 11, 9, 9, 8, 22, 20, 20, 5, 5, 5, 9, 5, 3, 29, 26, 25, 5, 3, 3, 11, 9, 4, 25, 21, 19|];